
  32    4
  10   10   10   10

   0   0   0   0   0   1 2 
   4   1   0   1   1   1 3 
   8   3   1   6   0   1 4 
   7   5   0   5   7   2 8 5 
   2   4   6   9   0   1 6 
  10   7   5   4   0   1 7 
   6   5   6   0   3   1 9 
   8   2   6   0   4   1 9 
   2   8   4   5   0   1 10 
   4   5   4   0   1   1 11 
   6   2   0   3   6   2 23 12 
   1   0   5   4   3   2 19 13 
   7   0   6   5   4   1 14 
  10   0   3   3   2   1 15 
   3   2   2   3   0   2 18 16 
   8   3   2   0   5   2 24 17 
   4   5   3   0   3   3 28 25 20 
   3   4   4   4   0   2 25 21 
   2   3   5   2   0   2 25 21 
   6   5   6   5   0   1 21 
   5   4   0   4   4   1 22 
  10   4   0   4   3   3 31 27 26 
   3   6   7   0   5   3 31 27 26 
   4   3   1   2   0   2 31 28 
   4   3   4   5   0   2 31 29 
  10   3   0   5   5   1 29 
   6   5   2   4   0   1 29 
   1   7   0   2   6   1 29 
   9   0   4   4   5   1 30 
   3   1   0   3   6   1 32
   4   0   2   4   3   1 32
   0   0   0   0   0   0 
